
Gurobi 7.5.2 (linux64) logging started Thu Mar 21 01:05:34 2019

Changed value of parameter LogFile to /home/aniket/python_scripts/Plasmids/exp/2019-03-21__iterative_with_questionable/output/sample_103/1.5.1/nplasmids_1/MILP/m.log
   Prev: gurobi.log  Default: 
Changed value of parameter TimeLimit to 2400.0
   Prev: 1e+100  Min: 0.0  Max: 1e+100  Default: 1e+100
Optimize a model with 2793 rows, 809 columns and 10596 nonzeros
Variable types: 220 continuous, 589 integer (297 binary)
Coefficient statistics:
  Matrix range     [2e-01, 1e+06]
  Objective range  [8e-04, 5e+05]
  Bounds range     [1e+00, 1e+00]
  RHS range        [3e-01, 1e+06]
Presolve removed 2351 rows and 564 columns
Presolve time: 0.01s
Presolved: 442 rows, 245 columns, 1460 nonzeros
Variable types: 52 continuous, 193 integer (142 binary)
Found heuristic solution: objective -336127.4721

Root relaxation: objective -9.343051e+05, 305 iterations, 0.00 seconds

    Nodes    |    Current Node    |     Objective Bounds      |     Work
 Expl Unexpl |  Obj  Depth IntInf | Incumbent    BestBd   Gap | It/Node Time

     0     0 -934305.12    0   42 -336127.47 -934305.12   178%     -    0s
     0     0 -703071.89    0   20 -336127.47 -703071.89   109%     -    0s
     0     0 -703065.88    0   16 -336127.47 -703065.88   109%     -    0s
     0     0 -702877.99    0   10 -336127.47 -702877.99   109%     -    0s
H    0     0                    -702876.3896 -702877.99  0.00%     -    0s

Cutting planes:
  Gomory: 10
  Cover: 19
  Implied bound: 2
  Clique: 5
  MIR: 4
  Flow cover: 15
  Zero half: 4

Explored 1 nodes (425 simplex iterations) in 0.03 seconds
Thread count was 4 (of 4 available processors)

Solution count 2: -702876 -336127 

Optimal solution found (tolerance 1.00e-04)
Best objective -7.028763896187e+05, best bound -7.028779944145e+05, gap 0.0002%

Gurobi 7.5.2 (linux64) logging started Thu Mar 21 01:05:35 2019

Changed value of parameter LogFile to /home/aniket/python_scripts/Plasmids/exp/2019-03-21__iterative_with_questionable/output/sample_103/1.5.1/nplasmids_1/MILP/m.log
   Prev: gurobi.log  Default: 
Changed value of parameter TimeLimit to 2400.0
   Prev: 1e+100  Min: 0.0  Max: 1e+100  Default: 1e+100
Optimize a model with 2442 rows, 707 columns and 8679 nonzeros
Variable types: 193 continuous, 514 integer (258 binary)
Coefficient statistics:
  Matrix range     [2e-01, 1e+06]
  Objective range  [9e-04, 4e+05]
  Bounds range     [1e+00, 1e+00]
  RHS range        [3e-01, 1e+06]
Presolve removed 2012 rows and 471 columns
Presolve time: 0.01s
Presolved: 430 rows, 236 columns, 1413 nonzeros
Variable types: 51 continuous, 185 integer (134 binary)
Found heuristic solution: objective -338748.8364

Root relaxation: objective -3.602685e+05, 115 iterations, 0.00 seconds

    Nodes    |    Current Node    |     Objective Bounds      |     Work
 Expl Unexpl |  Obj  Depth IntInf | Incumbent    BestBd   Gap | It/Node Time

     0     0 -360268.50    0   12 -338748.84 -360268.50  6.35%     -    0s
     0     0 -352993.78    0    4 -338748.84 -352993.78  4.21%     -    0s
*    0     0               0    -352971.9980 -352972.00  0.00%     -    0s

Explored 1 nodes (200 simplex iterations) in 0.03 seconds
Thread count was 4 (of 4 available processors)

Solution count 2: -352972 -338749 

Optimal solution found (tolerance 1.00e-04)
Best objective -3.529719979585e+05, best bound -3.529719979585e+05, gap 0.0000%

Gurobi 7.5.2 (linux64) logging started Thu Mar 21 01:05:35 2019

Changed value of parameter LogFile to /home/aniket/python_scripts/Plasmids/exp/2019-03-21__iterative_with_questionable/output/sample_103/1.5.1/nplasmids_1/MILP/m.log
   Prev: gurobi.log  Default: 
Changed value of parameter TimeLimit to 2400.0
   Prev: 1e+100  Min: 0.0  Max: 1e+100  Default: 1e+100
Optimize a model with 2404 rows, 696 columns and 8479 nonzeros
Variable types: 190 continuous, 506 integer (254 binary)
Coefficient statistics:
  Matrix range     [2e-01, 1e+06]
  Objective range  [9e-04, 4e+05]
  Bounds range     [1e+00, 1e+00]
  RHS range        [2e-01, 1e+06]
Presolve removed 1982 rows and 464 columns
Presolve time: 0.01s
Presolved: 422 rows, 232 columns, 1384 nonzeros
Variable types: 50 continuous, 182 integer (132 binary)
Found heuristic solution: objective -1456.522624

Root relaxation: objective -2.594456e+04, 280 iterations, 0.00 seconds

    Nodes    |    Current Node    |     Objective Bounds      |     Work
 Expl Unexpl |  Obj  Depth IntInf | Incumbent    BestBd   Gap | It/Node Time

     0     0 -25944.559    0   44 -1456.5226 -25944.559  1681%     -    0s
     0     0 -19674.099    0   65 -1456.5226 -19674.099  1251%     -    0s
     0     0 -19422.906    0   63 -1456.5226 -19422.906  1234%     -    0s
     0     0 -19412.596    0   63 -1456.5226 -19412.596  1233%     -    0s
     0     0 -19283.228    0   40 -1456.5226 -19283.228  1224%     -    0s
     0     0 -19200.332    0   43 -1456.5226 -19200.332  1218%     -    0s
     0     0 -19156.174    0   36 -1456.5226 -19156.174  1215%     -    0s
     0     0 -19156.134    0   34 -1456.5226 -19156.134  1215%     -    0s
     0     0 -19101.855    0   43 -1456.5226 -19101.855  1211%     -    0s
     0     0 -19094.392    0   41 -1456.5226 -19094.392  1211%     -    0s
     0     0 -19094.392    0   41 -1456.5226 -19094.392  1211%     -    0s
     0     0 -19093.076    0   60 -1456.5226 -19093.076  1211%     -    0s
     0     0 -19093.076    0   60 -1456.5226 -19093.076  1211%     -    0s
     0     2 -19093.076    0   60 -1456.5226 -19093.076  1211%     -    0s
*    5     6               2    -18892.00536 -18892.005  0.00%  35.6    0s

Cutting planes:
  Gomory: 12
  Cover: 36
  Implied bound: 7
  Clique: 4
  MIR: 4
  StrongCG: 2
  Flow cover: 20
  Zero half: 6

Explored 7 nodes (765 simplex iterations) in 0.07 seconds
Thread count was 4 (of 4 available processors)

Solution count 2: -18892 -1456.52 

Optimal solution found (tolerance 1.00e-04)
Best objective -1.889200536094e+04, best bound -1.889200536094e+04, gap 0.0000%

Gurobi 7.5.2 (linux64) logging started Thu Mar 21 01:05:35 2019

Changed value of parameter LogFile to /home/aniket/python_scripts/Plasmids/exp/2019-03-21__iterative_with_questionable/output/sample_103/1.5.1/nplasmids_1/MILP/m.log
   Prev: gurobi.log  Default: 
Changed value of parameter TimeLimit to 2400.0
   Prev: 1e+100  Min: 0.0  Max: 1e+100  Default: 1e+100
Optimize a model with 2363 rows, 684 columns and 8266 nonzeros
Variable types: 187 continuous, 497 integer (249 binary)
Coefficient statistics:
  Matrix range     [2e-01, 1e+06]
  Objective range  [9e-04, 4e+05]
  Bounds range     [1e+00, 1e+00]
  RHS range        [2e-01, 1e+06]
Presolve removed 1990 rows and 459 columns
Presolve time: 0.01s
Presolved: 373 rows, 225 columns, 1173 nonzeros
Variable types: 49 continuous, 176 integer (175 binary)

Root relaxation: objective -7.657747e+03, 261 iterations, 0.00 seconds

    Nodes    |    Current Node    |     Objective Bounds      |     Work
 Expl Unexpl |  Obj  Depth IntInf | Incumbent    BestBd   Gap | It/Node Time

     0     0 -7657.7470    0   31          - -7657.7470      -     -    0s
     0     0 -6728.6942    0   31          - -6728.6942      -     -    0s
     0     0 -6714.5010    0    6          - -6714.5010      -     -    0s
     0     0 -6693.7500    0    4          - -6693.7500      -     -    0s
     0     0 -6686.1054    0    4          - -6686.1054      -     -    0s
     0     0 -6685.8369    0    2          - -6685.8369      -     -    0s
*    0     0               0    -6669.590838 -6669.5908  0.00%     -    0s

Cutting planes:
  Gomory: 7
  Cover: 25
  Implied bound: 7
  Clique: 6
  StrongCG: 1
  Flow cover: 2

Explored 1 nodes (356 simplex iterations) in 0.03 seconds
Thread count was 4 (of 4 available processors)

Solution count 1: -6669.59 

Optimal solution found (tolerance 1.00e-04)
Best objective -6.669590838239e+03, best bound -6.669590838239e+03, gap 0.0000%

Gurobi 7.5.2 (linux64) logging started Thu Mar 21 01:05:35 2019

Changed value of parameter LogFile to /home/aniket/python_scripts/Plasmids/exp/2019-03-21__iterative_with_questionable/output/sample_103/1.5.1/nplasmids_1/MILP/m.log
   Prev: gurobi.log  Default: 
Changed value of parameter TimeLimit to 2400.0
   Prev: 1e+100  Min: 0.0  Max: 1e+100  Default: 1e+100
Optimize a model with 2277 rows, 660 columns and 7833 nonzeros
Variable types: 181 continuous, 479 integer (239 binary)
Coefficient statistics:
  Matrix range     [2e-01, 1e+06]
  Objective range  [9e-04, 4e+05]
  Bounds range     [1e+00, 1e+00]
  RHS range        [2e-01, 1e+06]
Presolve removed 1924 rows and 448 columns
Presolve time: 0.01s
Presolved: 353 rows, 212 columns, 1107 nonzeros
Variable types: 47 continuous, 165 integer (164 binary)

Root relaxation: objective -6.545182e+03, 218 iterations, 0.00 seconds

    Nodes    |    Current Node    |     Objective Bounds      |     Work
 Expl Unexpl |  Obj  Depth IntInf | Incumbent    BestBd   Gap | It/Node Time

     0     0 -6545.1824    0   24          - -6545.1824      -     -    0s
     0     0 -6328.8366    0   36          - -6328.8366      -     -    0s
     0     0 -6279.7042    0   29          - -6279.7042      -     -    0s
     0     0 -6278.2292    0   29          - -6278.2292      -     -    0s
     0     0 -6140.3615    0   43          - -6140.3615      -     -    0s
     0     0 -6099.7175    0   42          - -6099.7175      -     -    0s
     0     0 -6091.3489    0   42          - -6091.3489      -     -    0s
     0     0 -6079.2795    0   42          - -6079.2795      -     -    0s
     0     0 -6071.8333    0   42          - -6071.8333      -     -    0s
     0     0 -6071.5273    0   42          - -6071.5273      -     -    0s
     0     0 -6071.5273    0   42          - -6071.5273      -     -    0s
     0     0 -6039.7053    0   34          - -6039.7053      -     -    0s
H    0     0                    -5985.749335 -6039.7053  0.90%     -    0s
     0     0 -6035.7734    0    9 -5985.7493 -6035.7734  0.84%     -    0s
     0     0 -6021.2365    0    9 -5985.7493 -6021.2365  0.59%     -    0s
     0     0 -6008.0661    0    8 -5985.7493 -6008.0661  0.37%     -    0s
H    0     0                    -5992.755694 -6008.0661  0.26%     -    0s
*    0     0               0    -5995.647670 -5995.6477  0.00%     -    0s

Explored 1 nodes (480 simplex iterations) in 0.04 seconds
Thread count was 4 (of 4 available processors)

Solution count 3: -5995.65 -5992.76 -5985.75 

Optimal solution found (tolerance 1.00e-04)
Best objective -5.995647669803e+03, best bound -5.995647669803e+03, gap 0.0000%

Gurobi 7.5.2 (linux64) logging started Thu Mar 21 01:05:35 2019

Changed value of parameter LogFile to /home/aniket/python_scripts/Plasmids/exp/2019-03-21__iterative_with_questionable/output/sample_103/1.5.1/nplasmids_1/MILP/m.log
   Prev: gurobi.log  Default: 
Changed value of parameter TimeLimit to 2400.0
   Prev: 1e+100  Min: 0.0  Max: 1e+100  Default: 1e+100
Optimize a model with 2200 rows, 637 columns and 7448 nonzeros
Variable types: 175 continuous, 462 integer (230 binary)
Coefficient statistics:
  Matrix range     [2e-01, 1e+06]
  Objective range  [9e-04, 4e+05]
  Bounds range     [1e+00, 1e+00]
  RHS range        [2e-01, 1e+06]
Presolve removed 876 rows and 0 columns
Presolve time: 0.00s

Explored 0 nodes (0 simplex iterations) in 0.00 seconds
Thread count was 1 (of 4 available processors)

Solution count 0

Model is infeasible or unbounded
Best objective -, best bound -, gap -
Presolve removed 876 rows and 0 columns
Presolve time: 0.00s

Explored 0 nodes (0 simplex iterations) in 0.00 seconds
Thread count was 1 (of 4 available processors)

Solution count 0

Model is infeasible
Best objective -, best bound -, gap -

Computing Irreducible Inconsistent Subsystem (IIS)...

      Constraints           Bounds       Runtime
     Min       Max       Min      Max
------------------------------------------------
        0     1847         0      407         0s
       65       65         0        0         1s

IIS computed: 65 constraints, 0 bounds
IIS runtime: 1.18 seconds
Warning: linear constraint 0 and linear constraint 1 have the same name "extr_ubd"
